Zn2 O2                                  
   1.0000000000000000     
     6.5587750850931208   -0.0000000000000000    0.0000000000000000
    -3.2793875425465604    5.6800658413888314   -0.0000000000000000
    -0.0000000000000000   -0.0000000000000000   10.5706601442827921
   Zn   O    Ca
    15    16     1
Direct
  0.1666664999999981  0.3333335000000019 -0.0033934513045598
  0.1666664999999981  0.3333335000000019  0.5024855815509428
  0.1715110066193432  0.8357557533096747  0.0061951273926776
  0.1711425216786921  0.8355715108393489  0.4950956517270217
  0.6642442466903253  0.3284889933806567  0.0061951273926776
  0.6644284891606511  0.3288574783213077  0.4950956517270217
  0.6642442466903254  0.8357557533096747  0.0061951273926776
  0.6644284891606511  0.8355715108393489  0.4950956517270217
  0.3314072468139675  0.1685927531860325  0.2502299986964831
  0.3352950281313111  0.1647049718686889  0.7483772988669983
  0.3314072468139675  0.6628139936279291  0.2502299986964831
  0.3352950281313110  0.6705895562626162  0.7483772988669983
  0.8371860063720709  0.1685927531860325  0.2502299986964831
  0.8294104437373838  0.1647049718686889  0.7483772988669983
  0.8333335000000019  0.6666664999999981  0.2502801907780561
  0.1666664999999981  0.3333335000000019  0.1857487536260075
  0.1666664999999981  0.3333335000000019  0.6926484644355021
  0.1688385075334699  0.8344195037667381  0.1941229074697639
  0.1879153296739844  0.8439579148369951  0.6817526058656993
  0.6655804962332619  0.3311614924665301  0.1941229074697639
  0.6560420851630049  0.3120846703260154  0.6817526058656993
  0.6655804962332619  0.8344195037667381  0.1941229074697639
  0.6560420851630049  0.8439579148369951  0.6817526058656993
  0.3311210683667233  0.1688789316332766  0.4378560304894579
  0.3342933929040033  0.1657066070959967  0.9389782298590098
  0.3311210683667234  0.6622416367334409  0.4378560304894579
  0.3342933929040033  0.6685862858080008  0.9389782298590098
  0.8377583632665592  0.1688789316332766  0.4378560304894579
  0.8314137141919992  0.1657066070959968  0.9389782298590098
  0.8333335000000019  0.6666664999999981  0.4410318482376108
  0.8333335000000019  0.6666664999999981  0.9619838785499202
  0.8333335000000019  0.6666664999999981  0.7538711830251389

  0.00000000E+00  0.00000000E+00  0.00000000E+00
  0.00000000E+00  0.00000000E+00  0.00000000E+00
  0.00000000E+00  0.00000000E+00  0.00000000E+00
  0.00000000E+00  0.00000000E+00  0.00000000E+00
  0.00000000E+00  0.00000000E+00  0.00000000E+00
  0.00000000E+00  0.00000000E+00  0.00000000E+00
  0.00000000E+00  0.00000000E+00  0.00000000E+00
  0.00000000E+00  0.00000000E+00  0.00000000E+00
  0.00000000E+00  0.00000000E+00  0.00000000E+00
  0.00000000E+00  0.00000000E+00  0.00000000E+00
  0.00000000E+00  0.00000000E+00  0.00000000E+00
  0.00000000E+00  0.00000000E+00  0.00000000E+00
  0.00000000E+00  0.00000000E+00  0.00000000E+00
  0.00000000E+00  0.00000000E+00  0.00000000E+00
  0.00000000E+00  0.00000000E+00  0.00000000E+00
  0.00000000E+00  0.00000000E+00  0.00000000E+00
  0.00000000E+00  0.00000000E+00  0.00000000E+00
  0.00000000E+00  0.00000000E+00  0.00000000E+00
  0.00000000E+00  0.00000000E+00  0.00000000E+00
  0.00000000E+00  0.00000000E+00  0.00000000E+00
  0.00000000E+00  0.00000000E+00  0.00000000E+00
  0.00000000E+00  0.00000000E+00  0.00000000E+00
  0.00000000E+00  0.00000000E+00  0.00000000E+00
  0.00000000E+00  0.00000000E+00  0.00000000E+00
  0.00000000E+00  0.00000000E+00  0.00000000E+00
  0.00000000E+00  0.00000000E+00  0.00000000E+00
  0.00000000E+00  0.00000000E+00  0.00000000E+00
  0.00000000E+00  0.00000000E+00  0.00000000E+00
  0.00000000E+00  0.00000000E+00  0.00000000E+00
  0.00000000E+00  0.00000000E+00  0.00000000E+00
  0.00000000E+00  0.00000000E+00  0.00000000E+00
  0.00000000E+00  0.00000000E+00  0.00000000E+00
