Zn2 O2
1.0
        6.5782041550         0.0000000000         0.0000000000
       -3.2891020775         5.6968919095         0.0000000000
        0.0000000000         0.0000000000        10.6136417389
   Zn    O   Ca
   15   16    1
Direct
     0.166666500         0.333333500         0.000274000
     0.166666500         0.333333500         0.500274000
     0.166666500         0.833333500         0.000274000
     0.166666500         0.833333500         0.500274000
     0.666666500         0.333333500         0.000274000
     0.666666500         0.333333500         0.500274000
     0.666666500         0.833333500         0.000274000
     0.666666500         0.833333500         0.500274000
     0.333333500         0.166666500         0.250274000
     0.333333500         0.166666500         0.750274000
     0.333333500         0.666666500         0.250274000
     0.333333500         0.666666500         0.750274000
     0.833333500         0.166666500         0.250274000
     0.833333500         0.166666500         0.750274000
     0.833333500         0.666666500         0.250274000
     0.166666500         0.333333500         0.189881000
     0.166666500         0.333333500         0.689881000
     0.166666500         0.833333500         0.189881000
     0.166666500         0.833333500         0.689881000
     0.666666500         0.333333500         0.189881000
     0.666666500         0.333333500         0.689881000
     0.666666500         0.833333500         0.189881000
     0.666666500         0.833333500         0.689881000
     0.333333500         0.166666500         0.439881000
     0.333333500         0.166666500         0.939881000
     0.333333500         0.666666500         0.439881000
     0.333333500         0.666666500         0.939881000
     0.833333500         0.166666500         0.439881000
     0.833333500         0.166666500         0.939881000
     0.833333500         0.666666500         0.439881000
     0.833333500         0.666666500         0.939881000
     0.833333500         0.666666500         0.750274000
